Route #1: 27 59 95 17 31 28 39 50 52
Route #2: 68 54 96 88 75 21 41 12 58
Route #3: 19 63 72 10 86 100 62 8 49
Route #4: 40 47 48 82 107 57 13 23
Route #5: 73 35 7 37 94 81 44 70
Route #6: 1 90 16 29 78 74 32 79
Route #7: 91 38 108 3 14
Route #8: 105 20 92 97 42 106 67 34 45
Route #9: 5 46 89 51 85 11 77 6
Route #10: 98 66 15 53 26 87 84 18 109
Route #11: 69 25 103 24 4 101 33 9 102 56
Route #12: 30 55 76 83 22 61 60 104 93 71
Route #13: 99 65 36 64 43 2 80
Cost 14971
